
Gurobi 9.5.2 (mac64[arm]) logging started Fri Jan  6 16:04:37 2023

Set parameter LogFile to value "./ccga_results/2023-01-06 16-04-36-882/MSP_TimeStampConvert_gurobi_log.txt"

Gurobi 9.5.2 (mac64[arm]) logging started Fri Jan  6 16:04:38 2023

Set parameter LogFile to value "./ccga_results/2023-01-06 16-04-36-882/MSP_TimeStampConvert_gurobi_log.txt"
Set parameter TimeLimit to value 180
Gurobi Optimizer version 9.5.2 build v9.5.2rc0 (mac64[arm])
Thread count: 8 physical cores, 8 logical processors, using up to 8 threads
Optimize a model with 360 rows, 289 columns and 858 nonzeros
Model fingerprint: 0x81a4231b
Variable types: 73 continuous, 216 integer (216 binary)
Coefficient statistics:
  Matrix range     [1e+00, 1e+00]
  Objective range  [1e+00, 1e+00]
  Bounds range     [5e+01, 5e+01]
  RHS range        [1e+00, 1e+00]
Found heuristic solution: objective -0.0000000
Found heuristic solution: objective 50.0000000
Presolve removed 360 rows and 289 columns
Presolve time: 0.00s
Presolve: All rows and columns removed

Explored 0 nodes (0 simplex iterations) in 0.00 seconds (0.00 work units)
Thread count was 1 (of 8 available processors)

Solution count 2: 50 -0 

Optimal solution found (tolerance 1.00e-03)
Best objective 5.000000000000e+01, best bound 5.000000000000e+01, gap 0.0000%

User-callback calls 920, time in user-callback 0.00 sec
Gurobi Optimizer version 9.5.2 build v9.5.2rc0 (mac64[arm])
Thread count: 8 physical cores, 8 logical processors, using up to 8 threads
Optimize a model with 1701 rows, 865 columns and 6996 nonzeros
Model fingerprint: 0xa9647359
Variable types: 613 continuous, 252 integer (252 binary)
Coefficient statistics:
  Matrix range     [8e-04, 8e+02]
  Objective range  [1e+00, 1e+00]
  Bounds range     [5e+01, 5e+01]
  RHS range        [1e+00, 1e+08]

MIP start from previous solve did not produce a new incumbent solution

Presolve removed 534 rows and 362 columns
Presolve time: 0.01s
Presolved: 1167 rows, 503 columns, 4503 nonzeros
Variable types: 265 continuous, 238 integer (238 binary)
Found heuristic solution: objective 34.7117052
Found heuristic solution: objective 39.2656536
Found heuristic solution: objective 40.0659914
Found heuristic solution: objective 50.0000000

Explored 0 nodes (0 simplex iterations) in 0.02 seconds (0.03 work units)
Thread count was 8 (of 8 available processors)

Solution count 4: 50 40.066 39.2657 34.7117 

Optimal solution found (tolerance 1.00e-03)
Best objective 5.000000000000e+01, best bound 5.000000000000e+01, gap 0.0000%

User-callback calls 318, time in user-callback 0.00 sec
Gurobi Optimizer version 9.5.2 build v9.5.2rc0 (mac64[arm])
Thread count: 8 physical cores, 8 logical processors, using up to 8 threads
Optimize a model with 3042 rows, 1441 columns and 13134 nonzeros
Model fingerprint: 0x9c46809a
Variable types: 1153 continuous, 288 integer (288 binary)
Coefficient statistics:
  Matrix range     [8e-04, 8e+02]
  Objective range  [1e+00, 1e+00]
  Bounds range     [5e+01, 5e+01]
  RHS range        [1e+00, 1e+08]

MIP start from previous solve produced solution with objective 5.15689 (0.02s)
Loaded MIP start from previous solve with objective 5.15689

Presolve removed 1063 rows and 720 columns
Presolve time: 0.02s
Presolved: 1979 rows, 721 columns, 8132 nonzeros
Variable types: 457 continuous, 264 integer (264 binary)

Root relaxation: objective 5.000000e+01, 767 iterations, 0.01 seconds (0.01 work units)

    Nodes    |    Current Node    |     Objective Bounds      |     Work
 Expl Unexpl |  Obj  Depth IntInf | Incumbent    BestBd   Gap | It/Node Time

H    0     0                      50.0000000   50.00000  0.00%     -    0s
     0     0   50.00000    0    2   50.00000   50.00000  0.00%     -    0s

Explored 1 nodes (998 simplex iterations) in 0.06 seconds (0.07 work units)
Thread count was 8 (of 8 available processors)

Solution count 2: 50 5.15689 

Optimal solution found (tolerance 1.00e-03)
Best objective 5.000000000000e+01, best bound 5.000000000000e+01, gap 0.0000%

User-callback calls 377, time in user-callback 0.00 sec
Gurobi Optimizer version 9.5.2 build v9.5.2rc0 (mac64[arm])
Thread count: 8 physical cores, 8 logical processors, using up to 8 threads
Optimize a model with 4383 rows, 2017 columns and 19272 nonzeros
Model fingerprint: 0x8fe19b09
Variable types: 1693 continuous, 324 integer (324 binary)
Coefficient statistics:
  Matrix range     [8e-04, 8e+02]
  Objective range  [1e+00, 1e+00]
  Bounds range     [5e+01, 5e+01]
  RHS range        [1e+00, 1e+08]

MIP start from previous solve did not produce a new incumbent solution

Presolve removed 1553 rows and 1062 columns
Presolve time: 0.02s
Presolved: 2830 rows, 955 columns, 11913 nonzeros
Variable types: 649 continuous, 306 integer (306 binary)
Found heuristic solution: objective 22.7583839
Found heuristic solution: objective 25.0338412
Found heuristic solution: objective 34.7117052

Root relaxation: objective 5.000000e+01, 1119 iterations, 0.02 seconds (0.02 work units)

    Nodes    |    Current Node    |     Objective Bounds      |     Work
 Expl Unexpl |  Obj  Depth IntInf | Incumbent    BestBd   Gap | It/Node Time

     0     0   50.00000    0    8   34.71171   50.00000  44.0%     -    0s
H    0     0                      39.5702818   50.00000  26.4%     -    0s
     0     0   50.00000    0    5   39.57028   50.00000  26.4%     -    0s
H    0     0                      50.0000000   50.00000  0.00%     -    0s
     0     0   50.00000    0    5   50.00000   50.00000  0.00%     -    0s

Cutting planes:
  Gomory: 1
  Cover: 1
  Implied bound: 6
  Clique: 5
  MIR: 2
  Flow cover: 5
  Relax-and-lift: 1

Explored 1 nodes (1830 simplex iterations) in 0.13 seconds (0.17 work units)
Thread count was 8 (of 8 available processors)

Solution count 5: 50 39.5703 34.7117 ... 22.7584

Optimal solution found (tolerance 1.00e-03)
Best objective 5.000000000000e+01, best bound 5.000000000000e+01, gap 0.0000%

User-callback calls 389, time in user-callback 0.00 sec
Gurobi Optimizer version 9.5.2 build v9.5.2rc0 (mac64[arm])
Thread count: 8 physical cores, 8 logical processors, using up to 8 threads
Optimize a model with 5724 rows, 2593 columns and 25410 nonzeros
Model fingerprint: 0x2587af86
Variable types: 2233 continuous, 360 integer (360 binary)
Coefficient statistics:
  Matrix range     [8e-04, 8e+02]
  Objective range  [1e+00, 1e+00]
  Bounds range     [5e+01, 5e+01]
  RHS range        [1e+00, 1e+08]

MIP start from previous solve did not produce a new incumbent solution

Presolve removed 2061 rows and 1410 columns
Presolve time: 0.03s
Presolved: 3663 rows, 1183 columns, 15442 nonzeros
Variable types: 841 continuous, 342 integer (340 binary)
Found heuristic solution: objective 22.7344994
Found heuristic solution: objective 24.9269912
Found heuristic solution: objective 30.8223641

Root relaxation: objective 4.264866e+01, 1518 iterations, 0.03 seconds (0.05 work units)

    Nodes    |    Current Node    |     Objective Bounds      |     Work
 Expl Unexpl |  Obj  Depth IntInf | Incumbent    BestBd   Gap | It/Node Time

     0     0   39.39762    0   16   30.82236   39.39762  27.8%     -    0s
     0     0   36.55888    0   13   30.82236   36.55888  18.6%     -    0s
H    0     0                      34.2587886   36.55888  6.71%     -    0s
     0     0   36.44980    0   14   34.25879   36.44980  6.40%     -    0s
     0     0   36.42344    0   17   34.25879   36.42344  6.32%     -    0s
     0     0   36.37746    0   17   34.25879   36.37746  6.18%     -    0s
     0     0   36.37746    0   17   34.25879   36.37746  6.18%     -    0s

Cutting planes:
  Gomory: 1
  Implied bound: 2
  MIR: 18
  StrongCG: 1
  Flow cover: 32
  Relax-and-lift: 2

Explored 1 nodes (2335 simplex iterations) in 0.23 seconds (0.31 work units)
Thread count was 8 (of 8 available processors)

Solution count 4: 34.2588 30.8224 24.927 22.7345 

Optimal solution found (tolerance 1.00e-03)
Best objective 3.425878855957e+01, best bound 3.427999976874e+01, gap 0.0619%

User-callback calls 463, time in user-callback 0.00 sec
Gurobi Optimizer version 9.5.2 build v9.5.2rc0 (mac64[arm])
Thread count: 8 physical cores, 8 logical processors, using up to 8 threads
Optimize a model with 7065 rows, 3169 columns and 31548 nonzeros
Model fingerprint: 0x958ad491
Variable types: 2773 continuous, 396 integer (396 binary)
Coefficient statistics:
  Matrix range     [8e-04, 8e+02]
  Objective range  [1e+00, 1e+00]
  Bounds range     [5e+01, 5e+01]
  RHS range        [1e+00, 1e+08]

MIP start from previous solve did not produce a new incumbent solution

Presolve removed 2570 rows and 1760 columns
Presolve time: 0.04s
Presolved: 4495 rows, 1409 columns, 19095 nonzeros
Variable types: 1033 continuous, 376 integer (374 binary)
Found heuristic solution: objective 22.3716561
Found heuristic solution: objective 24.9269912
Found heuristic solution: objective 31.0135408

Root relaxation: objective 4.224607e+01, 1970 iterations, 0.05 seconds (0.07 work units)

    Nodes    |    Current Node    |     Objective Bounds      |     Work
 Expl Unexpl |  Obj  Depth IntInf | Incumbent    BestBd   Gap | It/Node Time

     0     0   38.38181    0   21   31.01354   38.38181  23.8%     -    0s
     0     0   36.55888    0   16   31.01354   36.55888  17.9%     -    0s
H    0     0                      34.2587886   36.55888  6.71%     -    0s
     0     0   35.83144    0   18   34.25879   35.83144  4.59%     -    0s
     0     0   35.77572    0   15   34.25879   35.77572  4.43%     -    0s
     0     0   35.77572    0   15   34.25879   35.77572  4.43%     -    0s
     0     0   35.70885    0   19   34.25879   35.70885  4.23%     -    0s
     0     0   35.69798    0   19   34.25879   35.69798  4.20%     -    0s
     0     0   35.69798    0   19   34.25879   35.69798  4.20%     -    0s

Cutting planes:
  Gomory: 2
  Implied bound: 1
  MIR: 26
  Flow cover: 57
  Relax-and-lift: 11

Explored 1 nodes (3337 simplex iterations) in 0.36 seconds (0.48 work units)
Thread count was 8 (of 8 available processors)

Solution count 4: 34.2588 31.0135 24.927 22.3717 

Optimal solution found (tolerance 1.00e-03)
Best objective 3.425878855957e+01, best bound 3.427999976874e+01, gap 0.0619%

User-callback calls 516, time in user-callback 0.00 sec
Gurobi Optimizer version 9.5.2 build v9.5.2rc0 (mac64[arm])
Thread count: 8 physical cores, 8 logical processors, using up to 8 threads
Optimize a model with 8406 rows, 3745 columns and 37686 nonzeros
Model fingerprint: 0x4d0d536c
Variable types: 3313 continuous, 432 integer (432 binary)
Coefficient statistics:
  Matrix range     [8e-04, 8e+02]
  Objective range  [1e+00, 1e+00]
  Bounds range     [5e+01, 5e+01]
  RHS range        [1e+00, 1e+08]

MIP start from previous solve did not produce a new incumbent solution

Presolve removed 3078 rows and 2109 columns
Presolve time: 0.05s
Presolved: 5328 rows, 1636 columns, 22695 nonzeros
Variable types: 1225 continuous, 411 integer (408 binary)
Found heuristic solution: objective 20.4715696
Found heuristic solution: objective 24.8453844
Found heuristic solution: objective 30.8223641

Root relaxation: objective 4.224607e+01, 2543 iterations, 0.05 seconds (0.06 work units)

    Nodes    |    Current Node    |     Objective Bounds      |     Work
 Expl Unexpl |  Obj  Depth IntInf | Incumbent    BestBd   Gap | It/Node Time

     0     0   38.38181    0   31   30.82236   38.38181  24.5%     -    0s
     0     0   36.55888    0   22   30.82236   36.55888  18.6%     -    0s
     0     0   36.55888    0   22   30.82236   36.55888  18.6%     -    0s
H    0     0                      34.2587886   36.55888  6.71%     -    0s
     0     0   35.76099    0   24   34.25879   35.76099  4.38%     -    0s
     0     0   35.76099    0   19   34.25879   35.76099  4.38%     -    0s
     0     0   35.51521    0   22   34.25879   35.51521  3.67%     -    0s
     0     0   35.50987    0   22   34.25879   35.50987  3.65%     -    0s
     0     0   35.50639    0   25   34.25879   35.50639  3.64%     -    0s
     0     0   35.50639    0   25   34.25879   35.50639  3.64%     -    0s
     0     0   35.49760    0   24   34.25879   35.49760  3.62%     -    0s
     0     0   35.49760    0   24   34.25879   35.49760  3.62%     -    0s
     0     0   35.49760    0   24   34.25879   35.49760  3.62%     -    0s
     0     0   35.20360    0   24   34.25879   35.20360  2.76%     -    0s

Cutting planes:
  Gomory: 3
  Implied bound: 1
  MIR: 26
  Flow cover: 53
  Relax-and-lift: 5

Explored 1 nodes (4789 simplex iterations) in 0.54 seconds (0.66 work units)
Thread count was 8 (of 8 available processors)

Solution count 4: 34.2588 30.8224 24.8454 20.4716 

Optimal solution found (tolerance 1.00e-03)
Best objective 3.425878855957e+01, best bound 3.427999976874e+01, gap 0.0619%

User-callback calls 626, time in user-callback 0.00 sec
Gurobi Optimizer version 9.5.2 build v9.5.2rc0 (mac64[arm])
Thread count: 8 physical cores, 8 logical processors, using up to 8 threads
Optimize a model with 9747 rows, 4321 columns and 43824 nonzeros
Model fingerprint: 0x282c6ab6
Variable types: 3853 continuous, 468 integer (468 binary)
Coefficient statistics:
  Matrix range     [8e-04, 8e+02]
  Objective range  [1e+00, 1e+00]
  Bounds range     [5e+01, 5e+01]
  RHS range        [1e+00, 1e+08]

MIP start from previous solve did not produce a new incumbent solution

Presolve removed 3587 rows and 2459 columns
Presolve time: 0.06s
Presolved: 6160 rows, 1862 columns, 26337 nonzeros
Variable types: 1417 continuous, 445 integer (442 binary)
Found heuristic solution: objective 20.4715696
Found heuristic solution: objective 22.6417787
Found heuristic solution: objective 28.7871640

Root relaxation: objective 3.874983e+01, 3074 iterations, 0.08 seconds (0.10 work units)

    Nodes    |    Current Node    |     Objective Bounds      |     Work
 Expl Unexpl |  Obj  Depth IntInf | Incumbent    BestBd   Gap | It/Node Time

     0     0   34.95009    0   41   28.78716   34.95009  21.4%     -    0s
     0     0   32.25996    0   48   28.78716   32.25996  12.1%     -    0s
H    0     0                      31.2500000   32.25996  3.23%     -    0s
     0     0   32.25996    0   45   31.25000   32.25996  3.23%     -    0s
     0     0   32.01811    0   39   31.25000   32.01811  2.46%     -    0s
     0     0   31.83424    0   44   31.25000   31.83424  1.87%     -    0s
     0     0   31.66429    0   41   31.25000   31.66429  1.33%     -    0s
     0     0   31.66429    0   41   31.25000   31.66429  1.33%     -    0s

Cutting planes:
  Gomory: 1
  Cover: 1
  Implied bound: 4
  Clique: 10
  MIR: 48
  Flow cover: 99
  Relax-and-lift: 7

Explored 1 nodes (7859 simplex iterations) in 0.60 seconds (0.80 work units)
Thread count was 8 (of 8 available processors)

Solution count 4: 31.25 28.7872 22.6418 20.4716 

Optimal solution found (tolerance 1.00e-03)
Best objective 3.125000000000e+01, best bound 3.125000000000e+01, gap 0.0000%

User-callback calls 578, time in user-callback 0.00 sec
Gurobi Optimizer version 9.5.2 build v9.5.2rc0 (mac64[arm])
Thread count: 8 physical cores, 8 logical processors, using up to 8 threads
Optimize a model with 11088 rows, 4897 columns and 49962 nonzeros
Model fingerprint: 0xb7b3c04d
Variable types: 4393 continuous, 504 integer (504 binary)
Coefficient statistics:
  Matrix range     [8e-04, 8e+02]
  Objective range  [1e+00, 1e+00]
  Bounds range     [5e+01, 5e+01]
  RHS range        [1e+00, 1e+08]

MIP start from previous solve did not produce a new incumbent solution

Presolve removed 4096 rows and 2809 columns
Presolve time: 0.06s
Presolved: 6992 rows, 2088 columns, 29979 nonzeros
Variable types: 1609 continuous, 479 integer (476 binary)
Found heuristic solution: objective 20.4715696
Found heuristic solution: objective 22.9823364
Found heuristic solution: objective 28.7871640

Root relaxation: objective 3.874983e+01, 3390 iterations, 0.10 seconds (0.14 work units)

    Nodes    |    Current Node    |     Objective Bounds      |     Work
 Expl Unexpl |  Obj  Depth IntInf | Incumbent    BestBd   Gap | It/Node Time

     0     0   34.95009    0   33   28.78716   34.95009  21.4%     -    0s
     0     0   32.25996    0   20   28.78716   32.25996  12.1%     -    0s
H    0     0                      31.2500000   32.25996  3.23%     -    0s
     0     0   32.01821    0   26   31.25000   32.01821  2.46%     -    0s
     0     0   31.98756    0   27   31.25000   31.98756  2.36%     -    0s
     0     0   31.66429    0   20   31.25000   31.66429  1.33%     -    0s
     0     0   31.66023    0   24   31.25000   31.66023  1.31%     -    0s
     0     0   31.66023    0   24   31.25000   31.66023  1.31%     -    0s
     0     0   31.59448    0   24   31.25000   31.59448  1.10%     -    0s
     0     0   31.57659    0   24   31.25000   31.57659  1.05%     -    0s
     0     0   31.49914    0   24   31.25000   31.49914  0.80%     -    0s
     0     0   31.49914    0   24   31.25000   31.49914  0.80%     -    0s
     0     0   31.49580    0   24   31.25000   31.49580  0.79%     -    0s
     0     0   31.49580    0   24   31.25000   31.49580  0.79%     -    0s
     0     0   31.49580    0   24   31.25000   31.49580  0.79%     -    0s
     0     0   31.49580    0   24   31.25000   31.49580  0.79%     -    0s
     0     0   31.25000    0   10   31.25000   31.25000  0.00%     -    0s

Cutting planes:
  Gomory: 1
  Implied bound: 4
  Clique: 5
  MIR: 50
  Flow cover: 91
  Relax-and-lift: 4

Explored 1 nodes (7950 simplex iterations) in 0.93 seconds (1.27 work units)
Thread count was 8 (of 8 available processors)

Solution count 4: 31.25 28.7872 22.9823 20.4716 

Optimal solution found (tolerance 1.00e-03)
Best objective 3.125000000000e+01, best bound 3.125000000000e+01, gap 0.0000%

User-callback calls 760, time in user-callback 0.00 sec
Gurobi Optimizer version 9.5.2 build v9.5.2rc0 (mac64[arm])
Thread count: 8 physical cores, 8 logical processors, using up to 8 threads
Optimize a model with 12429 rows, 5473 columns and 56100 nonzeros
Model fingerprint: 0x017716d4
Variable types: 4933 continuous, 540 integer (540 binary)
Coefficient statistics:
  Matrix range     [8e-04, 8e+02]
  Objective range  [1e+00, 1e+00]
  Bounds range     [5e+01, 5e+01]
  RHS range        [1e+00, 1e+08]

MIP start from previous solve did not produce a new incumbent solution

Presolve removed 4605 rows and 3159 columns
Presolve time: 0.07s
Presolved: 7824 rows, 2314 columns, 33621 nonzeros
Variable types: 1801 continuous, 513 integer (510 binary)
Found heuristic solution: objective 20.4715696
Found heuristic solution: objective 22.9823364
Found heuristic solution: objective 28.7101636

Root relaxation: objective 3.874983e+01, 3872 iterations, 0.11 seconds (0.14 work units)

    Nodes    |    Current Node    |     Objective Bounds      |     Work
 Expl Unexpl |  Obj  Depth IntInf | Incumbent    BestBd   Gap | It/Node Time

     0     0   34.95009    0   41   28.71016   34.95009  21.7%     -    0s
     0     0   32.25996    0   36   28.71016   32.25996  12.4%     -    0s
     0     0   32.25996    0   30   28.71016   32.25996  12.4%     -    0s
     0     0   31.90694    0   30   28.71016   31.90694  11.1%     -    0s
     0     0   31.82811    0   46   28.71016   31.82811  10.9%     -    0s
     0     0   31.82811    0   36   28.71016   31.82811  10.9%     -    0s
     0     0   31.80017    0   20   28.71016   31.80017  10.8%     -    0s
     0     0   31.80017    0   20   28.71016   31.80017  10.8%     -    0s
     0     0   31.25000    0   13   28.71016   31.25000  8.85%     -    0s
     0     0   31.25000    0   16   28.71016   31.25000  8.85%     -    0s
     0     0   31.25000    0   13   28.71016   31.25000  8.85%     -    1s
     0     0   31.25000    0   13   28.71016   31.25000  8.85%     -    1s
H    0     0                      31.2500000   31.25000  0.00%     -    1s

Cutting planes:
  Cover: 2
  Implied bound: 62
  Clique: 22
  MIR: 42
  Flow cover: 149
  Relax-and-lift: 25

Explored 1 nodes (11025 simplex iterations) in 1.05 seconds (1.44 work units)
Thread count was 8 (of 8 available processors)

Solution count 4: 31.25 28.7102 22.9823 20.4716 

Optimal solution found (tolerance 1.00e-03)
Best objective 3.125000000000e+01, best bound 3.125000000000e+01, gap 0.0000%

User-callback calls 749, time in user-callback 0.00 sec
Gurobi Optimizer version 9.5.2 build v9.5.2rc0 (mac64[arm])
Thread count: 8 physical cores, 8 logical processors, using up to 8 threads
Optimize a model with 13770 rows, 6049 columns and 62238 nonzeros
Model fingerprint: 0xfb8989c1
Variable types: 5473 continuous, 576 integer (576 binary)
Coefficient statistics:
  Matrix range     [8e-04, 8e+02]
  Objective range  [1e+00, 1e+00]
  Bounds range     [5e+01, 5e+01]
  RHS range        [1e+00, 1e+08]

MIP start from previous solve produced solution with objective 13.9062 (0.08s)
Loaded MIP start from previous solve with objective 13.9062

Presolve removed 5358 rows and 3541 columns
Presolve time: 0.10s
Presolved: 8412 rows, 2508 columns, 35943 nonzeros
Variable types: 1993 continuous, 515 integer (512 binary)

Root relaxation: objective 4.508430e+01, 4991 iterations, 0.18 seconds (0.26 work units)

    Nodes    |    Current Node    |     Objective Bounds      |     Work
 Expl Unexpl |  Obj  Depth IntInf | Incumbent    BestBd   Gap | It/Node Time

     0     0   45.08430    0   57   13.90621   45.08430   224%     -    0s
     0     0   38.93019    0   87   13.90621   38.93019   180%     -    0s
H    0     0                      17.1557293   38.93019   127%     -    0s
H    0     0                      18.1299962   34.25015  88.9%     -    0s
     0     0   34.25015    0   70   18.13000   34.25015  88.9%     -    0s
     0     0   34.25015    0   67   18.13000   34.25015  88.9%     -    0s
     0     0   31.25000    0   72   18.13000   31.25000  72.4%     -    0s
     0     0   31.25000    0   56   18.13000   31.25000  72.4%     -    0s
H    0     0                      27.3733187   31.25000  14.2%     -    1s
     0     0   31.25000    0   40   27.37332   31.25000  14.2%     -    1s
     0     0   31.25000    0   36   27.37332   31.25000  14.2%     -    1s
     0     0   31.25000    0   36   27.37332   31.25000  14.2%     -    1s
     0     0   31.25000    0   42   27.37332   31.25000  14.2%     -    1s
     0     0   31.25000    0   42   27.37332   31.25000  14.2%     -    1s
     0     0   31.25000    0   42   27.37332   31.25000  14.2%     -    1s
     0     0   31.25000    0   42   27.37332   31.25000  14.2%     -    1s
     0     0   31.25000    0   42   27.37332   31.25000  14.2%     -    1s
     0     0   31.25000    0   44   27.37332   31.25000  14.2%     -    1s
     0     0   31.25000    0   42   27.37332   31.25000  14.2%     -    1s
     0     0   31.25000    0   42   27.37332   31.25000  14.2%     -    1s
     0     0   31.25000    0   30   27.37332   31.25000  14.2%     -    1s
     0     0   31.25000    0   30   27.37332   31.25000  14.2%     -    1s
     0     0   31.25000    0   33   27.37332   31.25000  14.2%     -    1s
     0     0   31.25000    0   33   27.37332   31.25000  14.2%     -    1s
     0     0   31.25000    0   34   27.37332   31.25000  14.2%     -    1s
     0     0   31.25000    0   28   27.37332   31.25000  14.2%     -    1s
     0     2   31.25000    0   25   27.37332   31.25000  14.2%     -    2s
H   32    34                      29.4375295   31.25000  6.16%   663    2s
H   34    34                      31.2500000   31.25000  0.00%   644    2s

Cutting planes:
  Implied bound: 39
  MIR: 88
  StrongCG: 1
  Flow cover: 241
  Relax-and-lift: 29

Explored 40 nodes (43928 simplex iterations) in 2.60 seconds (4.48 work units)
Thread count was 8 (of 8 available processors)

Solution count 6: 31.25 29.4375 27.3733 ... 13.9062

Optimal solution found (tolerance 1.00e-03)
Best objective 3.125000000000e+01, best bound 3.125000000000e+01, gap 0.0000%

User-callback calls 1173, time in user-callback 0.00 sec
Gurobi Optimizer version 9.5.2 build v9.5.2rc0 (mac64[arm])
Thread count: 8 physical cores, 8 logical processors, using up to 8 threads
Optimize a model with 15111 rows, 6625 columns and 68376 nonzeros
Model fingerprint: 0xfad7b5d8
Variable types: 6013 continuous, 612 integer (612 binary)
Coefficient statistics:
  Matrix range     [8e-04, 8e+02]
  Objective range  [1e+00, 1e+00]
  Bounds range     [5e+01, 5e+01]
  RHS range        [1e+00, 1e+08]

MIP start from previous solve did not produce a new incumbent solution

Presolve removed 5623 rows and 3859 columns
Presolve time: 0.10s
Presolved: 9488 rows, 2766 columns, 40905 nonzeros
Variable types: 2185 continuous, 581 integer (578 binary)
Found heuristic solution: objective 20.4715696
Found heuristic solution: objective 26.4616575

Root relaxation: objective 3.795305e+01, 5018 iterations, 0.20 seconds (0.30 work units)

    Nodes    |    Current Node    |     Objective Bounds      |     Work
 Expl Unexpl |  Obj  Depth IntInf | Incumbent    BestBd   Gap | It/Node Time

     0     0   37.95305    0   66   26.46166   37.95305  43.4%     -    0s
     0     0   32.48114    0   44   26.46166   32.48114  22.7%     -    0s
H    0     0                      28.2878214   32.48114  14.8%     -    0s
     0     0   32.32949    0   47   28.28782   32.32949  14.3%     -    0s
     0     0   32.30154    0   44   28.28782   32.30154  14.2%     -    0s
     0     0   32.30154    0   44   28.28782   32.30154  14.2%     -    0s
     0     0   32.00146    0   52   28.28782   32.00146  13.1%     -    1s
     0     0   31.49394    0   46   28.28782   31.49394  11.3%     -    1s
     0     0   31.49394    0   46   28.28782   31.49394  11.3%     -    1s
     0     0   31.28345    0   39   28.28782   31.28345  10.6%     -    1s
     0     0   31.25191    0   41   28.28782   31.25191  10.5%     -    1s
     0     0   31.25181    0   38   28.28782   31.25181  10.5%     -    1s
     0     0   31.25000    0   22   28.28782   31.25000  10.5%     -    1s
     0     0   31.25000    0   19   28.28782   31.25000  10.5%     -    1s
     0     0   31.25000    0   22   28.28782   31.25000  10.5%     -    1s
     0     0   31.25000    0   22   28.28782   31.25000  10.5%     -    1s
H    0     0                      31.2500000   31.25000  0.00%     -    1s
     0     0   31.25000    0    8   31.25000   31.25000  0.00%     -    1s

Cutting planes:
  Cover: 1
  Implied bound: 29
  Clique: 5
  MIR: 79
  Flow cover: 205
  Relax-and-lift: 25

Explored 1 nodes (13199 simplex iterations) in 1.51 seconds (2.22 work units)
Thread count was 8 (of 8 available processors)

Solution count 4: 31.25 28.2878 26.4617 20.4716 

Optimal solution found (tolerance 1.00e-03)
Best objective 3.125000000000e+01, best bound 3.125000000000e+01, gap 0.0000%

User-callback calls 897, time in user-callback 0.00 sec
